p edge 90 403
e 1 2
e 1 7
e 1 34
e 1 49
e 1 65
e 1 83
e 2 11
e 2 21
e 2 29
e 2 37
e 2 42
e 2 46
e 2 51
e 2 63
e 2 65
e 2 73
e 2 84
e 3 6
e 3 11
e 3 18
e 3 28
e 3 37
e 3 44
e 3 55
e 3 60
e 3 70
e 3 71
e 3 82
e 3 84
e 4 34
e 4 49
e 4 55
e 4 58
e 4 62
e 4 72
e 4 78
e 4 82
e 4 85
e 5 65
e 5 66
e 5 89
e 6 11
e 6 12
e 6 17
e 6 22
e 6 29
e 6 38
e 6 44
e 6 47
e 6 68
e 6 69
e 6 72
e 6 74
e 6 81
e 7 10
e 7 37
e 7 45
e 7 48
e 7 53
e 7 58
e 7 69
e 7 90
e 8 13
e 8 20
e 8 29
e 8 31
e 8 35
e 8 37
e 8 43
e 8 54
e 8 55
e 8 57
e 8 64
e 8 69
e 8 72
e 8 73
e 8 74
e 8 84
e 9 20
e 9 43
e 9 52
e 9 57
e 9 59
e 9 67
e 9 68
e 9 75
e 9 90
e 10 30
e 10 72
e 10 78
e 10 82
e 10 86
e 11 24
e 11 50
e 11 54
e 11 59
e 11 69
e 11 77
e 11 84
e 12 15
e 12 43
e 12 44
e 12 47
e 12 51
e 12 56
e 12 79
e 12 82
e 12 83
e 13 17
e 13 28
e 13 31
e 13 33
e 13 37
e 13 38
e 13 39
e 13 42
e 13 53
e 13 64
e 14 22
e 14 76
e 15 21
e 15 22
e 15 30
e 15 51
e 15 52
e 15 56
e 15 58
e 15 65
e 15 69
e 15 71
e 15 83
e 16 24
e 16 34
e 16 65
e 16 70
e 17 40
e 17 70
e 18 33
e 18 35
e 18 50
e 18 56
e 18 68
e 18 79
e 18 81
e 19 24
e 19 37
e 19 55
e 19 57
e 19 62
e 19 71
e 19 72
e 19 83
e 19 85
e 20 41
e 20 59
e 20 61
e 20 71
e 20 88
e 21 22
e 21 23
e 21 47
e 21 80
e 21 87
e 22 25
e 22 46
e 22 52
e 22 55
e 22 61
e 22 64
e 22 65
e 22 76
e 22 85
e 23 24
e 23 27
e 23 38
e 23 44
e 23 49
e 23 71
e 23 89
e 24 25
e 24 39
e 24 44
e 24 62
e 24 87
e 25 39
e 25 44
e 25 47
e 25 48
e 25 59
e 25 65
e 25 84
e 25 85
e 25 89
e 26 30
e 26 42
e 26 89
e 27 30
e 27 44
e 27 49
e 27 67
e 27 69
e 27 74
e 27 76
e 27 82
e 28 29
e 28 52
e 28 60
e 28 66
e 28 69
e 28 77
e 28 78
e 29 33
e 29 48
e 29 55
e 29 72
e 29 75
e 29 79
e 30 33
e 30 60
e 30 68
e 30 70
e 30 76
e 30 88
e 31 34
e 31 38
e 31 44
e 31 52
e 31 69
e 32 64
e 32 68
e 32 70
e 32 75
e 32 76
e 32 83
e 32 85
e 32 88
e 33 49
e 33 72
e 34 39
e 34 43
e 34 81
e 34 86
e 35 37
e 35 38
e 35 42
e 35 52
e 35 58
e 35 61
e 35 73
e 35 84
e 36 43
e 36 48
e 36 50
e 36 56
e 36 61
e 36 76
e 37 41
e 37 49
e 37 89
e 38 49
e 38 57
e 39 40
e 39 44
e 39 64
e 39 67
e 39 79
e 39 84
e 39 88
e 40 41
e 40 49
e 40 58
e 40 59
e 40 66
e 40 84
e 41 42
e 41 46
e 42 59
e 42 61
e 42 65
e 42 77
e 43 48
e 43 55
e 43 64
e 43 80
e 43 83
e 44 45
e 44 53
e 45 82
e 45 84
e 46 65
e 46 83
e 46 84
e 47 49
e 47 53
e 47 74
e 47 77
e 48 51
e 48 53
e 48 59
e 48 68
e 48 76
e 48 77
e 48 87
e 49 61
e 49 66
e 49 72
e 49 86
e 49 88
e 50 54
e 50 56
e 50 63
e 51 72
e 51 80
e 52 70
e 52 71
e 52 90
e 53 56
e 53 67
e 53 71
e 54 56
e 54 69
e 54 76
e 54 85
e 55 65
e 55 67
e 55 76
e 55 82
e 55 85
e 56 64
e 56 87
e 57 71
e 57 72
e 57 74
e 57 75
e 57 79
e 57 84
e 57 88
e 58 59
e 58 73
e 58 79
e 58 87
e 59 66
e 59 77
e 59 79
e 59 88
e 59 89
e 60 80
e 61 65
e 61 69
e 61 71
e 61 73
e 61 79
e 61 85
e 62 70
e 62 71
e 62 74
e 62 90
e 63 83
e 64 66
e 64 70
e 64 80
e 64 82
e 64 90
e 65 71
e 65 77
e 65 80
e 66 74
e 66 87
e 67 76
e 67 87
e 68 76
e 68 88
e 69 70
e 69 80
e 69 83
e 70 85
e 70 86
e 70 89
e 71 73
e 71 81
e 71 85
e 72 83
e 73 76
e 73 77
e 73 87
e 73 90
e 74 75
e 74 84
e 74 87
e 74 88
e 75 86
e 76 78
e 76 88
e 77 84
e 77 87
e 78 83
e 79 87
e 80 90
e 81 86
e 81 88
e 81 89
e 85 90
e 88 89
